
Gurobi 11.0.0 (linux64) logging started Mon Jul 22 11:09:03 2024

Set parameter LogFile to value "/lustre1/scratch/348/vsc34888/JointResearch/05.Models/06.Benchmarking/M.Random_forest/RTS24_mod1_ByStages_nc300/openStarNet_RTS24_mod1_ByStages_nc300.log"
Set parameter Method to value 2
Set parameter MIPFocus to value 1
Set parameter Presolve to value 2
Set parameter RINS to value 100
Set parameter MIPGap to value 0.01
Set parameter Threads to value 36
Set parameter TimeLimit to value 259200
Set parameter IterationLimit to value 760000000
Gurobi Optimizer version 11.0.0 build v11.0.0rc2 (linux64 - "Rocky Linux 8.9 (Green Obsidian)")

CPU model: Intel(R) Xeon(R) Gold 6240 CPU @ 2.60GHz, instruction set [SSE2|AVX|AVX2|AVX512]
Thread count: 36 physical cores, 36 logical processors, using up to 36 threads

Optimize a model with 106503 rows, 71897 columns and 290390 nonzeros
Model fingerprint: 0x7e1cfa18
Variable types: 71876 continuous, 21 integer (21 binary)
Coefficient statistics:
  Matrix range     [1e-03, 3e+02]
  Objective range  [1e+00, 1e+00]
  Bounds range     [3e-05, 3e+00]
  RHS range        [3e-05, 3e+00]
Presolve removed 63426 rows and 36478 columns
Presolve time: 0.44s
Presolved: 43077 rows, 35419 columns, 155546 nonzeros
Variable types: 35398 continuous, 21 integer (21 binary)
Root relaxation presolved: 43077 rows, 35419 columns, 155546 nonzeros

Root barrier log...

Ordering time: 0.01s

Barrier statistics:
 Dense cols : 21
 AA' NZ     : 2.890e+05
 Factor NZ  : 8.423e+05 (roughly 40 MB of memory)
 Factor Ops : 1.932e+07 (less than 1 second per iteration)
 Threads    : 35

                  Objective                Residual
Iter       Primal          Dual         Primal    Dual     Compl     Time
   0   6.70564152e+05 -1.03565791e+08  5.37e+00 5.54e+01  2.92e+03     1s
   1   1.07842130e+05 -2.70565055e+07  7.23e-01 4.82e-09  4.12e+02     1s
   2   4.21249649e+04 -1.20896845e+07  1.78e-01 2.06e-09  1.42e+02     1s
   3   2.13677698e+04 -1.28270520e+06  6.75e-03 4.72e-10  1.32e+01     1s
   4   1.12755833e+04 -1.73436916e+05  9.41e-05 6.38e-11  1.84e+00     1s
   5   3.22820742e+03 -4.40097636e+04  1.34e-05 1.49e-11  4.71e-01     1s
   6   1.08961673e+03 -1.03948165e+04  2.60e-06 3.21e-12  1.14e-01     1s
   7   5.40311481e+02 -2.89718246e+03  6.66e-07 8.60e-13  3.43e-02     1s
   8   2.81714074e+02 -1.02156061e+03  1.61e-07 4.55e-13  1.30e-02     1s
   9   1.95649719e+02 -4.34488281e+02  8.07e-08 4.55e-13  6.28e-03     1s
  10   1.18783076e+02 -1.97751960e+02  3.07e-08 2.27e-13  3.15e-03     1s
  11   8.77594946e+01 -7.58070184e+01  1.50e-08 4.55e-13  1.63e-03     1s
  12   7.29061827e+01  1.37355722e+01  8.80e-09 2.27e-13  5.90e-04     1s
  13   6.47708255e+01  2.27177522e+01  5.71e-09 2.27e-13  4.19e-04     1s
  14   6.12750641e+01  2.40287570e+01  4.36e-09 4.55e-13  3.71e-04     1s
  15   5.92486672e+01  3.35740684e+01  3.59e-09 4.55e-13  2.56e-04     1s
  16   5.67791265e+01  3.66255270e+01  2.67e-09 4.55e-13  2.01e-04     1s
  17   5.48036039e+01  3.90655589e+01  1.98e-09 9.09e-13  1.57e-04     1s
  18   5.41873488e+01  4.34540558e+01  1.78e-09 4.55e-13  1.07e-04     1s
  19   5.23794783e+01  4.41556067e+01  1.07e-09 4.55e-13  8.20e-05     1s
  20   5.13346365e+01  4.54836352e+01  6.72e-10 4.55e-13  5.83e-05     1s
  21   5.08013785e+01  4.64914710e+01  4.70e-10 4.55e-13  4.30e-05     1s
  22   5.05577177e+01  4.74666084e+01  3.64e-10 4.55e-13  3.08e-05     1s
  23   5.01087713e+01  4.77700898e+01  1.84e-10 4.55e-13  2.33e-05     1s
  24   4.98887159e+01  4.82380537e+01  1.02e-10 4.55e-13  1.65e-05     1s
  25   4.98343760e+01  4.89686629e+01  8.14e-11 4.55e-13  8.63e-06     1s
  26   4.97089184e+01  4.91367565e+01  3.39e-11 2.27e-13  5.70e-06     1s
  27   4.96792196e+01  4.92939641e+01  2.35e-11 2.27e-13  3.84e-06     1s
  28   4.96735199e+01  4.93563319e+01  2.14e-11 4.55e-13  3.16e-06     1s
  29   4.96552122e+01  4.93673728e+01  1.55e-11 4.55e-13  2.87e-06     1s
  30   4.96386084e+01  4.94219825e+01  2.24e-11 2.27e-13  2.16e-06     1s
  31   4.96314022e+01  4.94772255e+01  1.77e-11 4.55e-13  1.54e-06     1s
  32   4.96238616e+01  4.95242147e+01  1.33e-11 2.27e-13  9.93e-07     1s
  33   4.96190610e+01  4.95807930e+01  4.82e-11 4.55e-13  3.81e-07     1s
  34   4.96149243e+01  4.95908900e+01  1.59e-10 4.55e-13  2.40e-07     1s
  35   4.96141320e+01  4.95922257e+01  2.86e-10 4.55e-13  2.18e-07     1s
  36   4.96119096e+01  4.96000398e+01  1.05e-10 4.55e-13  1.18e-07     1s
  37   4.96097715e+01  4.96015468e+01  1.17e-10 4.55e-13  8.20e-08     1s
  38   4.96093409e+01  4.96038810e+01  7.99e-11 2.27e-13  5.44e-08     1s
  39   4.96091511e+01  4.96045630e+01  8.31e-11 4.55e-13  4.57e-08     2s
  40   4.96090085e+01  4.96056236e+01  1.61e-10 4.55e-13  3.37e-08     2s
  41   4.96089602e+01  4.96063234e+01  1.34e-10 4.55e-13  2.63e-08     2s
  42   4.96086522e+01  4.96071590e+01  2.12e-10 2.27e-13  1.49e-08     2s
  43   4.96086273e+01  4.96076044e+01  2.30e-10 2.27e-13  1.02e-08     2s
  44   4.96085708e+01  4.96078584e+01  4.84e-10 2.27e-13  7.10e-09     2s
  45   4.96085669e+01  4.96080469e+01  7.58e-10 2.27e-13  5.18e-09     2s
  46   4.96085544e+01  4.96081685e+01  2.10e-09 4.55e-13  3.85e-09     2s
  47   4.96085510e+01  4.96083477e+01  1.55e-09 2.27e-13  2.03e-09     2s
  48   4.96085482e+01  4.96084296e+01  6.00e-10 1.25e-11  1.18e-09     2s
  49   4.96085472e+01  4.96085353e+01  1.80e-10 4.55e-13  1.18e-10     2s
  50   4.96085468e+01  4.96085463e+01  4.30e-09 2.27e-10  5.04e-12     2s
  51   4.96085466e+01  4.96085466e+01  7.77e-11 4.55e-13  3.14e-15     2s

Barrier solved model in 51 iterations and 1.72 seconds (1.50 work units)
Optimal objective 4.96085466e+01


Root relaxation: objective 4.960855e+01, 5989 iterations, 1.50 seconds (1.18 work units)

    Nodes    |    Current Node    |     Objective Bounds      |     Work
 Expl Unexpl |  Obj  Depth IntInf | Incumbent    BestBd   Gap | It/Node Time

     0     0   49.60855    0   18          -   49.60855      -     -    2s
H    0     0                     102.8411500   49.60855  51.8%     -    3s
     0     0   50.65247    0    9  102.84115   50.65247  50.7%     -    6s
H    0     0                      99.0001859   50.65247  48.8%     -    6s
H    0     0                      92.1559637   50.67947  45.0%     -    7s
     0     0   50.70107    0   10   92.15596   50.70107  45.0%     -    7s
     0     0   50.70107    0   11   92.15596   50.70107  45.0%     -    7s
     0     0   50.70107    0   11   92.15596   50.70107  45.0%     -    7s
     0     0   50.79574    0    9   92.15596   50.79574  44.9%     -    8s
H    0     0                      88.4442571   50.81708  42.5%     -    9s
     0     0   50.81708    0    9   88.44426   50.81708  42.5%     -    9s
     0     0   50.87578    0    9   88.44426   50.87578  42.5%     -    9s
H    0     0                      85.0772447   51.01882  40.0%     -   11s
     0     0   51.01882    0   10   85.07724   51.01882  40.0%     -   11s
     0     0   51.04595    0   14   85.07724   51.04595  40.0%     -   12s
     0     0   51.04659    0   11   85.07724   51.04659  40.0%     -   12s
     0     0   51.04659    0   11   85.07724   51.04659  40.0%     -   12s
H    0     0                      82.0497183   51.09640  37.7%     -   13s
H    0     0                      80.6011568   51.20736  36.5%     -   13s
     0     0   51.20736    0   10   80.60116   51.20736  36.5%     -   13s
     0     0   51.27708    0   11   80.60116   51.27708  36.4%     -   14s
     0     0   51.27708    0   12   80.60116   51.27708  36.4%     -   14s
     0     0   51.27708    0   12   80.60116   51.27708  36.4%     -   14s
     0     0   51.27708    0   12   80.60116   51.27708  36.4%     -   17s
H    0     0                      68.7234571   51.27708  25.4%     -   95s
     0     2   51.27708    0   12   68.72346   51.27708  25.4%     -   96s
     7    16   52.43859    3   15   68.72346   52.17657  24.1%  3458  101s
    31    60   54.43896    5   16   68.72346   52.68926  23.3%  2718  105s
    63    96   56.55805    6   15   68.72346   54.34866  20.9%  2828  116s
    99   126   57.83410    7   14   68.72346   54.35114  20.9%  2654  148s
   135   154   60.16894    8   13   68.72346   54.35114  20.9%  2641  151s
   207   203     cutoff    9        68.72346   54.35114  20.9%  2414  155s
   297   242     cutoff   10        68.72346   54.35114  20.9%  2278  161s
   398   272   65.32215    7   12   68.72346   54.69878  20.4%  2152  385s
   519   271     cutoff    8        68.72346   54.69878  20.4%  2059  392s
   597   280     cutoff    8        68.72346   54.69878  20.4%  2010  502s
   669   277     cutoff    8        68.72346   56.56460  17.7%  2002  505s
   863   303   61.39613    9   12   68.72346   56.56460  17.7%  1896  512s
   964   291   65.15811   10   11   68.72346   56.56460  17.7%  1855  516s
  1066   313     cutoff   11        68.72346   56.56460  17.7%  1819  520s
  1166   319   64.31953   10   11   68.72346   56.56460  17.7%  1805  543s
  1224   334   67.66465   11   10   68.72346   56.56460  17.7%  1804  547s
  1372   342   68.63005   15    6   68.72346   57.37296  16.5%  1733  551s
  1510   352     cutoff    8        68.72346   58.80365  14.4%  1690  555s
  1845   320     cutoff   10        68.72346   60.39077  12.1%  1575  563s
  2002   313     cutoff   10        68.72346   61.87154  10.0%  1542  568s
  2147   307   62.09931   10   11   68.72346   61.88694  9.95%  1514  571s
  2355   290   65.42965   14    7   68.72346   61.88694  9.95%  1460  576s
  2574   245   68.59818   19    1   68.72346   62.11440  9.62%  1411  580s
  3047   118   68.17366   15    6   68.72346   62.95379  8.40%  1318  587s
  3288    62   68.12140   13    8   68.72346   62.95379  8.40%  1270  590s

Cutting planes:
  Implied bound: 126
  MIR: 1159
  Relax-and-lift: 161

Explored 3618 nodes (4387782 simplex iterations) in 593.83 seconds (750.37 work units)
Thread count was 36 (of 36 available processors)

Solution count 8: 68.7235 80.6012 82.0497 ... 102.841

Optimal solution found (tolerance 1.00e-02)
Best objective 6.872345706708e+01, best bound 6.872345706708e+01, gap 0.0000%

Gurobi 11.0.0 (linux64) logging started Mon Jul 22 11:19:36 2024

Set parameter LogFile to value "/lustre1/scratch/348/vsc34888/JointResearch/05.Models/06.Benchmarking/M.Random_forest/RTS24_mod1_ByStages_nc300/openStarNet_RTS24_mod1_ByStages_nc300.log"
Set parameter Method to value 2
Set parameter MIPFocus to value 1
Set parameter Presolve to value 2
Set parameter RINS to value 100
Set parameter MIPGap to value 0.01
Set parameter Threads to value 36
Set parameter TimeLimit to value 259200
Set parameter IterationLimit to value 760000000
Gurobi Optimizer version 11.0.0 build v11.0.0rc2 (linux64 - "Rocky Linux 8.9 (Green Obsidian)")

CPU model: Intel(R) Xeon(R) Gold 6240 CPU @ 2.60GHz, instruction set [SSE2|AVX|AVX2|AVX512]
Thread count: 36 physical cores, 36 logical processors, using up to 36 threads

Optimize a model with 106503 rows, 71876 columns and 265169 nonzeros
Model fingerprint: 0x9b378d83
Coefficient statistics:
  Matrix range     [1e-03, 3e+02]
  Objective range  [1e+00, 1e+00]
  Bounds range     [3e-05, 3e+00]
  RHS range        [3e-05, 3e+01]
Presolve removed 89418 rows and 40994 columns
Presolve time: 0.14s
Presolved: 17085 rows, 31339 columns, 75151 nonzeros

Ordering time: 0.00s

Barrier statistics:
 AA' NZ     : 4.145e+04
 Factor NZ  : 1.611e+05 (roughly 17 MB of memory)
 Factor Ops : 2.311e+06 (less than 1 second per iteration)
 Threads    : 36

                  Objective                Residual
Iter       Primal          Dual         Primal    Dual     Compl     Time
   0   3.14237401e+06 -3.10655415e+07  4.28e+01 2.48e+01  8.31e+03     0s
   1   1.76020123e+05 -2.17737643e+07  1.98e+00 8.44e-13  7.23e+02     0s
   2   4.82854759e+04 -5.06780934e+06  3.65e-01 1.10e-12  1.28e+02     0s
   3   2.43582117e+04 -5.76145989e+05  2.58e-02 5.96e-13  1.20e+01     0s
   4   1.22698163e+04 -1.42009271e+05  2.01e-03 5.68e-13  2.89e+00     0s
   5   4.23632605e+03 -3.06232253e+04  1.18e-04 2.84e-13  6.48e-01     0s
   6   1.50599927e+03 -7.66463232e+03  2.02e-05 2.27e-13  1.70e-01     0s
   7   6.34939979e+02 -2.12421373e+03  4.39e-06 2.35e-13  5.13e-02     0s
   8   4.07724275e+02 -6.99157470e+02  1.83e-06 2.27e-13  2.06e-02     0s
   9   2.17290106e+02 -2.77872502e+02  5.41e-07 1.14e-13  9.20e-03     0s
  10   1.64470977e+02 -1.04116210e+02  3.23e-07 1.14e-13  4.99e-03     0s
  11   1.02957157e+02 -1.29325611e+00  9.81e-08 1.14e-13  1.94e-03     0s
  12   8.09768607e+01  5.47509774e+01  3.10e-08 1.14e-13  4.87e-04     0s
  13   7.46250108e+01  6.48464927e+01  1.44e-08 1.14e-13  1.82e-04     0s
  14   7.10462609e+01  6.71667163e+01  5.57e-09 2.27e-13  7.21e-05     0s
  15   6.97826179e+01  6.81213849e+01  2.50e-09 2.27e-13  3.09e-05     0s
  16   6.92573010e+01  6.84935264e+01  1.24e-09 2.27e-13  1.42e-05     0s
  17   6.88914244e+01  6.86484624e+01  3.70e-10 1.14e-13  4.51e-06     0s
  18   6.87546439e+01  6.87088550e+01  1.26e-10 2.27e-13  8.51e-07     0s
  19   6.87286515e+01  6.87212142e+01  3.69e-10 1.14e-13  1.38e-07     0s
  20   6.87235341e+01  6.87232565e+01  5.56e-10 2.27e-13  5.16e-09     0s
  21   6.87234601e+01  6.87234460e+01  1.46e-09 1.14e-13  2.61e-10     0s
  22   6.87234571e+01  6.87234571e+01  3.62e-10 2.27e-13  2.61e-13     0s
  23   6.87234571e+01  6.87234571e+01  3.95e-12 1.14e-13  9.56e-18     0s

Barrier solved model in 23 iterations and 0.38 seconds (0.35 work units)
Optimal objective 6.87234571e+01

Crossover log...

    3758 DPushes remaining with DInf 0.0000000e+00                 0s
       0 DPushes remaining with DInf 0.0000000e+00                 0s

     916 PPushes remaining with PInf 0.0000000e+00                 0s
       0 PPushes remaining with PInf 0.0000000e+00                 0s

  Push phase complete: Pinf 0.0000000e+00, Dinf 1.4201383e-13      0s

Iteration    Objective       Primal Inf.    Dual Inf.      Time
     930    6.8723457e+01   0.000000e+00   0.000000e+00      0s

Use crossover to convert LP symmetric solution to basic solution...
Crossover log...

       0 DPushes remaining with DInf 0.0000000e+00                 0s

     678 PPushes remaining with PInf 0.0000000e+00                 0s
       0 PPushes remaining with PInf 0.0000000e+00                 0s

  Push phase complete: Pinf 0.0000000e+00, Dinf 1.3473524e-13      0s

Iteration    Objective       Primal Inf.    Dual Inf.      Time
    1645    6.8723457e+01   0.000000e+00   0.000000e+00      1s

Solved in 1645 iterations and 0.55 seconds (0.44 work units)
Optimal objective  6.872345707e+01

Gurobi 11.0.0 (linux64) logging started Mon Jul 22 16:16:45 2024

Set parameter LogFile to value "/lustre1/scratch/348/vsc34888/JointResearch/05.Models/06.Benchmarking/M.Random_forest/RTS24_mod1_ByStages_nc300/openStarNet_RTS24_mod1_ByStages_nc300.log"
Set parameter Method to value 2
Set parameter MIPFocus to value 1
Set parameter Presolve to value 2
Set parameter RINS to value 100
Set parameter MIPGap to value 0.01
Set parameter Threads to value 36
Set parameter TimeLimit to value 259200
Set parameter IterationLimit to value 760000000
Gurobi Optimizer version 11.0.0 build v11.0.0rc2 (linux64 - "Rocky Linux 8.9 (Green Obsidian)")

CPU model: Intel(R) Xeon(R) Gold 6240 CPU @ 2.60GHz, instruction set [SSE2|AVX|AVX2|AVX512]
Thread count: 36 physical cores, 36 logical processors, using up to 36 threads

Optimize a model with 106503 rows, 71857 columns and 290265 nonzeros
Model fingerprint: 0xa4eb53eb
Variable types: 71836 continuous, 21 integer (21 binary)
Coefficient statistics:
  Matrix range     [1e-03, 3e+02]
  Objective range  [1e+00, 1e+00]
  Bounds range     [3e-05, 3e+00]
  RHS range        [3e-05, 3e+00]
Presolve removed 63420 rows and 36430 columns
Presolve time: 0.43s
Presolved: 43083 rows, 35427 columns, 155561 nonzeros
Variable types: 35406 continuous, 21 integer (21 binary)
Root relaxation presolved: 43083 rows, 35427 columns, 155561 nonzeros

Root barrier log...

Ordering time: 0.01s

Barrier statistics:
 Dense cols : 21
 AA' NZ     : 2.890e+05
 Factor NZ  : 8.424e+05 (roughly 40 MB of memory)
 Factor Ops : 1.932e+07 (less than 1 second per iteration)
 Threads    : 35

                  Objective                Residual
Iter       Primal          Dual         Primal    Dual     Compl     Time
   0   6.60774236e+05 -8.93938398e+07  5.30e+00 6.10e+01  2.50e+03     1s
   1   1.04374298e+05 -2.31435746e+07  6.99e-01 5.53e-09  3.49e+02     1s
   2   4.27488231e+04 -1.06386595e+07  1.88e-01 1.96e-09  1.25e+02     1s
   3   2.08047632e+04 -1.12044477e+06  5.95e-03 1.35e-10  1.15e+01     1s
   4   1.20036235e+04 -1.53148288e+05  1.09e-04 1.55e-11  1.65e+00     1s
   5   3.75510106e+03 -4.01085718e+04  1.61e-05 3.97e-12  4.37e-01     1s
   6   1.18674197e+03 -9.30872268e+03  2.90e-06 8.63e-13  1.05e-01     1s
   7   5.55082413e+02 -2.80608466e+03  7.28e-07 3.41e-13  3.35e-02     1s
   8   2.61046130e+02 -9.85875899e+02  1.40e-07 2.27e-13  1.24e-02     1s
   9   1.84042845e+02 -5.43527109e+02  7.59e-08 2.27e-13  7.25e-03     1s
  10   1.10722463e+02 -1.65940664e+02  2.45e-08 2.27e-13  2.76e-03     1s
  11   8.35203836e+01 -2.15432624e+01  1.17e-08 4.55e-13  1.05e-03     1s
  12   7.21260101e+01  1.48411592e+01  7.30e-09 4.55e-13  5.71e-04     1s
  13   6.58547686e+01  1.99355972e+01  4.98e-09 4.55e-13  4.58e-04     1s
  14   6.51695854e+01  2.23395511e+01  4.71e-09 4.55e-13  4.27e-04     1s
  15   6.38470799e+01  2.55451053e+01  4.21e-09 4.55e-13  3.82e-04     1s
  16   5.94338685e+01  3.36150708e+01  2.62e-09 4.55e-13  2.57e-04     1s
  17   5.71454031e+01  3.77435677e+01  1.77e-09 4.55e-13  1.93e-04     1s
  18   5.61792639e+01  3.89994396e+01  1.41e-09 4.55e-13  1.71e-04     1s
  19   5.56894356e+01  4.33655546e+01  1.25e-09 4.55e-13  1.23e-04     1s
  20   5.53756048e+01  4.45027538e+01  1.12e-09 9.09e-13  1.08e-04     1s
  21   5.47849630e+01  4.57073396e+01  9.22e-10 4.55e-13  9.05e-05     1s
  22   5.39839055e+01  4.78090904e+01  6.26e-10 4.55e-13  6.15e-05     1s
  23   5.36421560e+01  4.87480188e+01  4.96e-10 4.55e-13  4.88e-05     1s
  24   5.33361507e+01  4.95749747e+01  3.84e-10 4.55e-13  3.75e-05     1s
  25   5.29717709e+01  4.98936105e+01  2.49e-10 4.55e-13  3.07e-05     1s
  26   5.28125626e+01  5.03280507e+01  1.84e-10 4.55e-13  2.48e-05     1s
  27   5.26256979e+01  5.07106934e+01  1.17e-10 4.55e-13  1.91e-05     1s
  28   5.25436079e+01  5.13032028e+01  8.76e-11 2.27e-13  1.24e-05     1s
  29   5.24335582e+01  5.16775189e+01  4.80e-11 4.55e-13  7.53e-06     1s
  30   5.23918662e+01  5.19100615e+01  3.18e-11 4.55e-13  4.80e-06     1s
  31   5.23665151e+01  5.20664021e+01  2.30e-11 2.27e-13  2.99e-06     1s
  32   5.23603813e+01  5.20740830e+01  2.08e-11 4.55e-13  2.85e-06     1s
  33   5.23456420e+01  5.21227850e+01  4.04e-11 4.55e-13  2.22e-06     1s
  34   5.23345535e+01  5.21649265e+01  6.81e-11 4.55e-13  1.69e-06     1s
  35   5.23242318e+01  5.21973183e+01  9.56e-11 4.55e-13  1.26e-06     1s
  36   5.23146181e+01  5.22414916e+01  1.16e-10 4.55e-13  7.29e-07     1s
  37   5.23100556e+01  5.22679332e+01  6.67e-11 2.27e-13  4.20e-07     1s
  38   5.23091674e+01  5.22710597e+01  6.08e-11 4.55e-13  3.80e-07     1s
  39   5.23079397e+01  5.22774513e+01  6.18e-11 2.27e-13  3.04e-07     1s
  40   5.23071935e+01  5.22812160e+01  5.12e-11 2.27e-13  2.59e-07     1s
  41   5.23061718e+01  5.22862586e+01  4.67e-11 2.27e-13  1.98e-07     2s
  42   5.23037019e+01  5.22965480e+01  2.59e-10 2.27e-13  7.13e-08     2s
  43   5.23026173e+01  5.22989215e+01  3.00e-10 2.27e-13  3.68e-08     2s
  44   5.23018770e+01  5.22995864e+01  3.11e-10 4.55e-13  2.28e-08     2s
  45   5.23018333e+01  5.23000852e+01  2.74e-10 2.27e-13  1.74e-08     2s
  46   5.23017979e+01  5.23002078e+01  2.58e-10 4.55e-13  1.58e-08     2s
  47   5.23017812e+01  5.23003316e+01  2.32e-10 4.55e-13  1.44e-08     2s
  48   5.23016505e+01  5.23007180e+01  2.40e-10 1.08e-12  9.29e-09     2s
  49   5.23015873e+01  5.23009560e+01  7.25e-10 5.74e-13  6.29e-09     2s
  50   5.23015287e+01  5.23012383e+01  1.23e-09 4.55e-13  2.89e-09     2s
  51   5.23015261e+01  5.23013523e+01  1.73e-09 7.25e-13  1.73e-09     2s
  52   5.23015209e+01  5.23014280e+01  1.60e-09 1.91e-12  9.26e-10     2s
  53   5.23015192e+01  5.23014498e+01  4.47e-10 9.61e-12  6.92e-10     2s
  54   5.23015190e+01  5.23014906e+01  3.08e-10 2.13e-11  2.82e-10     2s
  55   5.23015187e+01  5.23015176e+01  2.16e-09 9.94e-12  1.07e-11     2s
  56   5.23015186e+01  5.23015186e+01  5.71e-10 4.55e-13  6.40e-15     2s

Barrier solved model in 56 iterations and 1.77 seconds (1.58 work units)
Optimal objective 5.23015186e+01


Root relaxation: objective 5.230152e+01, 6609 iterations, 1.55 seconds (1.28 work units)

    Nodes    |    Current Node    |     Objective Bounds      |     Work
 Expl Unexpl |  Obj  Depth IntInf | Incumbent    BestBd   Gap | It/Node Time

     0     0   52.30152    0   19          -   52.30152      -     -    2s
H    0     0                     103.7827835   52.30152  49.6%     -    3s
     0     0   53.54133    0   16  103.78278   53.54133  48.4%     -    5s
H    0     0                      99.3458040   53.54133  46.1%     -    6s
H    0     0                      93.7859946   53.59422  42.9%     -    7s
     0     0   53.59422    0   17   93.78599   53.59422  42.9%     -    7s
     0     0   53.60337    0   15   93.78599   53.60337  42.8%     -    7s
     0     0   53.60535    0   15   93.78599   53.60535  42.8%     -    7s
     0     0   53.60740    0   13   93.78599   53.60740  42.8%     -    7s
H    0     0                      90.3360336   53.60844  40.7%     -    8s
     0     0   53.60844    0   15   90.33603   53.60844  40.7%     -    8s
     0     0   53.60844    0   15   90.33603   53.60844  40.7%     -    8s
     0     0   53.78158    0   15   90.33603   53.78158  40.5%     -    9s
     0     0   53.81022    0   16   90.33603   53.81022  40.4%     -   10s
     0     0   53.83799    0   16   90.33603   53.83799  40.4%     -   10s
     0     0   53.84450    0   16   90.33603   53.84450  40.4%     -   10s
     0     0   53.84554    0   16   90.33603   53.84554  40.4%     -   10s
     0     0   53.84554    0   16   90.33603   53.84554  40.4%     -   10s
H    0     0                      86.9113825   53.84554  38.0%     -   11s
     0     0   53.95755    0   14   86.91138   53.95755  37.9%     -   12s
H    0     0                      84.8112440   53.96990  36.4%     -   13s
     0     0   53.96990    0   14   84.81124   53.96990  36.4%     -   13s
     0     0   53.97077    0   14   84.81124   53.97077  36.4%     -   13s
     0     0   53.97132    0   14   84.81124   53.97132  36.4%     -   13s
     0     0   53.97134    0   14   84.81124   53.97134  36.4%     -   13s
     0     0   53.99246    0   13   84.81124   53.99246  36.3%     -   15s
     0     0   53.99263    0   13   84.81124   53.99263  36.3%     -   15s
     0     0   53.99536    0   13   84.81124   53.99536  36.3%     -   17s
H    0     0                      71.6904090   53.99536  24.7%     -   78s
     0     2   53.99536    0   13   71.69041   53.99536  24.7%     -   79s
     1     4   54.13546    1   15   71.69041   54.00967  24.7%  2559   81s
     7    16   55.37916    3   15   71.69041   55.24839  22.9%  3969   85s
    31    60   55.63337    5   12   71.69041   55.44882  22.7%  2811   91s
    63    89   57.89541    6   14   71.69041   55.63645  22.4%  2501   98s
    99   117   59.59076    7   13   71.69041   57.72801  19.5%  2449  118s
H  112   117                      71.5134190   57.75369  19.2%  2380  118s
   135   137   62.60778    8   13   71.51342   57.75369  19.2%  2319  121s
   207   178   65.61995    9   12   71.51342   57.75369  19.2%  2136  125s
   299   203     cutoff   10        71.51342   57.75369  19.2%  1948  332s
H  320   203                      71.5134190   57.75369  19.2%  1902  332s
   347   209     cutoff   11        71.51342   58.35644  18.4%  1885  335s
   462   209   65.50715    8   13   71.51342   58.35644  18.4%  1843  343s
   536   236   68.17944    9   12   71.51342   58.35644  18.4%  1778  345s
   677   222     cutoff   11        71.51342   58.35644  18.4%  1637  351s
   847   245   70.84059   10   11   71.51342   58.35644  18.4%  1548  357s
   939   238     cutoff   12        71.51342   58.35644  18.4%  1510  382s
  1006   256   69.19581   11   10   71.51342   58.35644  18.4%  1497  385s
  1256   257   69.68030    7   13   71.51342   59.57544  16.7%  1421  392s
  1392   267   67.82062    7   13   71.51342   59.57544  16.7%  1387  422s
  1452   295   70.60974    8   12   71.51342   59.57544  16.7%  1373  425s
  1780   304     cutoff   16        71.51342   61.38384  14.2%  1284  433s
  1951   316   68.47429    9   12   71.51342   61.38384  14.2%  1253  437s
  2135   281   63.41798    8   10   71.51342   61.38384  14.2%  1218  440s
  2519   225     cutoff   12        71.51342   61.38384  14.2%  1152  447s
  2738   163     cutoff   11        71.51342   62.72104  12.3%  1117  450s
  3177    20   71.04797   12    9   71.51342   62.82949  12.1%  1051  456s
  3363     4   70.16528   13    8   71.51342   65.41179  8.53%  1026  460s

Cutting planes:
  Learned: 3
  Gomory: 1
  Implied bound: 35
  MIR: 1352
  Relax-and-lift: 130

Explored 3396 nodes (3510033 simplex iterations) in 463.29 seconds (568.52 work units)
Thread count was 36 (of 36 available processors)

Solution count 8: 71.5134 71.6904 84.8112 ... 103.783

Optimal solution found (tolerance 1.00e-02)
Warning: max constraint violation (1.5715e-06) exceeds tolerance
Best objective 7.151341900223e+01, best bound 7.151341900223e+01, gap 0.0000%

Gurobi 11.0.0 (linux64) logging started Mon Jul 22 16:25:07 2024

Set parameter LogFile to value "/lustre1/scratch/348/vsc34888/JointResearch/05.Models/06.Benchmarking/M.Random_forest/RTS24_mod1_ByStages_nc300/openStarNet_RTS24_mod1_ByStages_nc300.log"
Set parameter Method to value 2
Set parameter MIPFocus to value 1
Set parameter Presolve to value 2
Set parameter RINS to value 100
Set parameter MIPGap to value 0.01
Set parameter Threads to value 36
Set parameter TimeLimit to value 259200
Set parameter IterationLimit to value 760000000
Gurobi Optimizer version 11.0.0 build v11.0.0rc2 (linux64 - "Rocky Linux 8.9 (Green Obsidian)")

CPU model: Intel(R) Xeon(R) Gold 6240 CPU @ 2.60GHz, instruction set [SSE2|AVX|AVX2|AVX512]
Thread count: 36 physical cores, 36 logical processors, using up to 36 threads

Optimize a model with 106503 rows, 71836 columns and 265044 nonzeros
Model fingerprint: 0x4e67c553
Coefficient statistics:
  Matrix range     [1e-03, 3e+02]
  Objective range  [1e+00, 1e+00]
  Bounds range     [3e-05, 3e+00]
  RHS range        [3e-05, 2e+01]
Presolve removed 88832 rows and 40135 columns
Presolve time: 0.13s
Presolved: 17671 rows, 32001 columns, 79344 nonzeros

Ordering time: 0.00s

Barrier statistics:
 AA' NZ     : 4.021e+04
 Factor NZ  : 1.497e+05 (roughly 16 MB of memory)
 Factor Ops : 1.999e+06 (less than 1 second per iteration)
 Threads    : 36

                  Objective                Residual
Iter       Primal          Dual         Primal    Dual     Compl     Time
   0   1.90131021e+06 -5.31777554e+07  2.57e+01 5.67e+01  9.48e+03     0s
   1   1.40514638e+05 -3.23004803e+07  1.54e+00 1.71e-12  1.03e+03     0s
   2   4.79114078e+04 -8.27349509e+06  3.36e-01 1.59e-12  2.10e+02     0s
   3   2.56232248e+04 -1.02500281e+06  1.28e-02 1.65e-12  2.05e+01     0s
   4   1.61002855e+04 -2.04175538e+05  1.96e-04 1.07e-12  4.15e+00     0s
   5   6.80743878e+03 -4.42144084e+04  1.11e-05 6.82e-13  9.60e-01     0s
   6   1.73868296e+03 -1.15337866e+04  7.48e-07 4.29e-13  2.50e-01     0s
   7   7.80881853e+02 -3.43814189e+03  1.92e-07 2.27e-13  7.94e-02     0s
   8   4.59892417e+02 -1.11355095e+03  5.84e-08 2.27e-13  2.96e-02     0s
   9   2.61631764e+02 -4.36239531e+02  1.55e-08 2.27e-13  1.31e-02     0s
  10   1.81669140e+02 -1.56413812e+02  8.32e-09 1.14e-13  6.36e-03     0s
  11   1.16824135e+02 -3.63953799e+00  2.90e-09 1.14e-13  2.27e-03     0s
  12   8.34490522e+01  5.76281142e+01  5.95e-10 2.27e-13  4.86e-04     0s
  13   7.68119148e+01  6.84094501e+01  2.51e-10 2.27e-13  1.58e-04     0s
  14   7.36030539e+01  7.01375678e+01  9.59e-11 2.27e-13  6.52e-05     0s
  15   7.23195149e+01  7.09570416e+01  9.96e-11 1.14e-13  2.56e-05     0s
  16   7.18389036e+01  7.12692311e+01  8.53e-11 2.27e-13  1.07e-05     0s
  17   7.16060339e+01  7.14102672e+01  6.01e-10 2.27e-13  3.68e-06     0s
  18   7.15243128e+01  7.15013496e+01  8.71e-11 1.14e-13  4.32e-07     0s
  19   7.15151167e+01  7.15101224e+01  1.34e-10 2.27e-13  9.39e-08     0s
  20   7.15134865e+01  7.15133976e+01  2.13e-10 2.27e-13  1.67e-09     0s
  21   7.15134198e+01  7.15134187e+01  4.01e-10 1.71e-13  2.08e-11     0s
  22   7.15134190e+01  7.15134190e+01  1.12e-10 1.14e-13  2.08e-14     0s

Barrier solved model in 22 iterations and 0.38 seconds (0.34 work units)
Optimal objective 7.15134190e+01

Crossover log...

    3781 DPushes remaining with DInf 0.0000000e+00                 0s
       0 DPushes remaining with DInf 0.0000000e+00                 0s

     939 PPushes remaining with PInf 0.0000000e+00                 0s
       0 PPushes remaining with PInf 0.0000000e+00                 0s

  Push phase complete: Pinf 0.0000000e+00, Dinf 1.2557894e-13      0s

Iteration    Objective       Primal Inf.    Dual Inf.      Time
     982    7.1513419e+01   0.000000e+00   0.000000e+00      0s

Use crossover to convert LP symmetric solution to basic solution...
Crossover log...

       0 DPushes remaining with DInf 0.0000000e+00                 0s

     667 PPushes remaining with PInf 0.0000000e+00                 0s
       0 PPushes remaining with PInf 0.0000000e+00                 0s

  Push phase complete: Pinf 0.0000000e+00, Dinf 1.2269460e-13      0s

Iteration    Objective       Primal Inf.    Dual Inf.      Time
    1653    7.1513419e+01   0.000000e+00   0.000000e+00      1s

Solved in 1653 iterations and 0.56 seconds (0.44 work units)
Optimal objective  7.151341901e+01
